words_easy_train/words_557_SAT.qaiger
aag 65 16 0 1 49
26
22
24
4
12
28
32
18
6
8
14
2
30
16
10
20
131
34 23 21
36 34 25
38 36 27
40 38 29
42 41 30
44 40 31
46 45 43
48 47 14
50 37 26
52 51 39
54 52 11
56 35 24
58 57 37
60 58 9
62 61 55
64 22 20
66 65 35
68 67 6
70 59 8
72 66 7
74 21 4
76 20 5
78 19 3
80 79 77
82 81 75
84 83 73
86 85 71
88 86 69
90 89 62
92 39 28
94 93 41
96 95 12
98 53 10
100 99 97
102 100 91
104 46 15
106 94 13
108 107 105
110 108 103
112 111 49
114 33 16
116 32 17
118 117 115
120 119 44
122 118 45
124 123 121
126 124 112
128 125 113
130 129 127
i0 1 x2[4]
i1 1 x2[2]
i2 1 x2[3]
i3 2 y1[1]
i4 2 y1[5]
i5 1 x2[5]
i6 1 x2[7]
i7 1 x2[0]
i8 2 y1[2]
i9 2 y1[3]
i10 2 y1[6]
i11 2 y1[0]
i12 1 x2[6]
i13 2 y1[7]
i14 2 y1[4]
i15 1 x2[1]
o0 bv[0]
c
simplified
  >=
    invert
      2 y1
    subtract
      1 x2
      1
