words_easy_train/words_557_SAT.qaiger.qdimacs
p cnf 65 148
a 9 10 11 12 13 14 15 16 0
e 1 2 3 4 5 6 7 8 17 18 19 20 21 22 23 24 25 26 27 28 29 30 31 32 33 34 35 36 37 38 39 40 41 42 43 44 45 46 47 48 49 50 51 52 53 54 55 56 57 58 59 60 61 62 63 64 65 0
11 10 17 0
-11 -17 0
-10 -17 0
-17 12 18 0
17 -18 0
-12 -18 0
-18 13 19 0
18 -19 0
-13 -19 0
-19 14 20 0
19 -20 0
-14 -20 0
20 -15 21 0
-20 -21 0
15 -21 0
-20 15 22 0
20 -22 0
-15 -22 0
22 21 23 0
-22 -23 0
-21 -23 0
23 -7 24 0
-23 -24 0
7 -24 0
18 -13 25 0
-18 -25 0
13 -25 0
25 19 26 0
-25 -26 0
-19 -26 0
-26 5 27 0
26 -27 0
-5 -27 0
17 -12 28 0
-17 -28 0
12 -28 0
28 18 29 0
-28 -29 0
-18 -29 0
-29 4 30 0
29 -30 0
-4 -30 0
30 27 31 0
-30 -31 0
-27 -31 0
-11 -10 32 0
11 -32 0
10 -32 0
32 17 33 0
-32 -33 0
-17 -33 0
33 -3 34 0
-33 -34 0
3 -34 0
29 -4 35 0
-29 -35 0
4 -35 0
-33 3 36 0
33 -36 0
-3 -36 0
10 -2 37 0
-10 -37 0
2 -37 0
-10 2 38 0
10 -38 0
-2 -38 0
9 1 39 0
-9 -39 0
-1 -39 0
39 38 40 0
-39 -40 0
-38 -40 0
40 37 41 0
-40 -41 0
-37 -41 0
41 36 42 0
-41 -42 0
-36 -42 0
42 35 43 0
-42 -43 0
-35 -43 0
-43 34 44 0
43 -44 0
-34 -44 0
44 -31 45 0
-44 -45 0
31 -45 0
19 -14 46 0
-19 -46 0
14 -46 0
46 20 47 0
-46 -47 0
-20 -47 0
47 -6 48 0
-47 -48 0
6 -48 0
26 -5 49 0
-26 -49 0
5 -49 0
49 48 50 0
-49 -50 0
-48 -50 0
-50 45 51 0
50 -51 0
-45 -51 0
-23 7 52 0
23 -52 0
-7 -52 0
-47 6 53 0
47 -53 0
-6 -53 0
53 52 54 0
-53 -54 0
-52 -54 0
-54 51 55 0
54 -55 0
-51 -55 0
55 24 56 0
-55 -56 0
-24 -56 0
16 -8 57 0
-16 -57 0
8 -57 0
-16 8 58 0
16 -58 0
-8 -58 0
58 57 59 0
-58 -59 0
-57 -59 0
59 -22 60 0
-59 -60 0
22 -60 0
-59 22 61 0
59 -61 0
-22 -61 0
61 60 62 0
-61 -62 0
-60 -62 0
-62 -56 63 0
62 -63 0
56 -63 0
62 56 64 0
-62 -64 0
-56 -64 0
64 63 65 0
-64 -65 0
-63 -65 0
-65 0
